c Random generated cnf formula, satisfiable: false
p cnf 10 50
10 1 2 0
-6 9 -2 0
-7 -3 -6 0
-2 7 10 0
-7 -3 10 0
6 -7 -9 0
6 -4 7 0
-6 -9 5 0
-4 -3 -1 0
6 1 -5 0
8 -6 -7 0
4 9 2 0
1 -4 3 0
-2 -3 -1 0
-5 -8 -1 0
6 10 4 0
-4 7 -2 0
6 -7 9 0
10 7 1 0
6 -3 -9 0
2 -6 -1 0
6 -1 4 0
-8 7 -3 0
5 2 -3 0
1 3 -5 0
2 -1 3 0
1 5 -7 0
-9 7 5 0
9 10 -7 0
3 9 -7 0
-10 -6 7 0
-3 -7 -5 0
-1 5 -9 0
-1 -8 -9 0
2 3 6 0
6 3 -2 0
-1 5 -10 0
9 -4 -7 0
9 -6 -4 0
-10 2 -7 0
9 3 -1 0
4 10 -8 0
-8 -4 9 0
-10 5 8 0
-9 7 -4 0
5 9 1 0
-6 8 -9 0
-7 4 -9 0
4 -6 -5 0
5 -1 4 0
